num_staff = 8;
work_load = [100, 100, 100, 100, 100, 100, 100, 100];
num_days = 40;
unavailable = [
    {1, 10, 11, 20, 21},
    {1, 3, 10, 11, 20, 21},
    {3},
    {2},
    {2},
    {2},
    {2},
    {2}
];
fixed = [
    {},
    {},
    {1},
    {},
    {},
    {},
    {},
    {}
];
weekend_offset = 2;
adj_days_str = 1;
wed_before_weekend_str = 1;

staffWork =   [1,   1,  3];
desiredWork = [{3},{4},{5}];
scWork =      [ 1 , 2, 3];

staffNotWork =   [2   , 4];
desiredNotWork = [{3}, {2}];
scNotWork =      [ 4,   5 ];


crCustomEdges = [| 2, 1 | 4, 5 | 3, 4 |];

max_week_day_bt = 15;
max_weekend_bt = 4; % found by previous runs with the original model
